p cnf 20 40
1 -2 0
1 -3 0
2 -4 0
2 -5 0
3 -6 0
3 -7 0
4 -8 0
4 -9 0
5 -10 0
5 -11 0
6 -12 0
6 -13 0
7 -14 0
7 -15 0
8 -16 0
8 -17 0
9 -18 0
9 -19 0
10 -20 0
11 -20 0
12 -20 0
13 -20 0
14 -20 0
15 -20 0
16 -20 0
17 -20 0
18 -20 0
19 -20 0
-1 2 3 0
-2 4 5 0
-3 6 7 0
-4 8 9 0
-5 10 11 0
-6 12 13 0
-7 14 15 0
-8 16 17 0
-9 18 19 0
-10 -11 -12 -13 -14 -15 -16 -17 -18 -19 20 0